
  32    4
  10   10   10   10

   0   0   0   0   0   1 2 
   8  10  10  10  10   1 3 
   4  10  10  10  10   1 4 
   9  10  10  10  10   1 5 
  10  10  10  10  10   1 6 
   3  10  10  10  10   2 11 7 
  10  10  10  10  10   1 8 
   8  10  10  10  10   2 13 9 
   1  10  10  10  10   2 14 10 
   4  10  10  10  10   2 18 12 
   9  10  10  10  10   2 18 13 
   8  10  10  10  10   1 15 
   9  10  10  10  10   1 14 
   2  10  10  10  10   1 16 
   4  10  10  10  10   1 16 
  10  10  10  10  10   1 17 
   4  10  10  10  10   1 19 
   2  10  10  10  10   1 19 
   9  10  10  10  10   1 20 
   7  10  10  10  10   1 21 
   8  10  10  10  10   1 22 
   6  10  10  10  10   2 26 23 
   2  10  10  10  10   2 28 24 
   7  10  10  10  10   1 25 
   8  10  10  10  10   1 27 
   6  10  10  10  10   1 28 
   6  10  10  10  10   1 29 
   6  10  10  10  10   1 29 
   1  10  10  10  10   1 30 
   4  10  10  10  10   1 31 
   3  10  10  10  10   1 32
   0   0   0   0   0   0 
